job_count = 16 ;
duration = [|5, 26, 5, 4|28, 12, 17, 5|6, 5, 10, 4|35, 12, 6, 8|4, 29, 5, 5|33, 4, 14, 3|29, 7, 7, 4|23, 15, 19, 1|12, 8, 8, 9|32, 15, 16, 8|5, 22, 17, 1|18, 5, 13, 3|6, 22, 19, 4|4, 7, 14, 1|38, 19, 19, 4|6, 17, 5, 4|] ;
machine_count = 4 ;
cost = [|10, 22, 53, 73|15, 20, 42, 44|15, 32, 52, 41|10, 27, 46, 60|14, 30, 56, 62|16, 29, 40, 44|14, 27, 52, 45|10, 21, 58, 59|13, 32, 30, 49|16, 36, 56, 62|19, 37, 42, 54|19, 31, 52, 41|18, 35, 46, 61|15, 38, 40, 58|15, 27, 50, 45|18, 39, 48, 50|] ;
deadline = [33, 33, 33, 33, 33, 33, 33, 33, 33, 33, 33, 33, 33, 33, 33, 33] ;
release = [0, 0, 0, 0, 0, 0, 0, 0, 0, 0, 0, 0, 0, 0, 0, 0] ;
resource = [|1, 1, 1, 1|5, 5, 5, 5|6, 6, 6, 6|6, 6, 6, 6|6, 6, 6, 6|6, 6, 6, 6|9, 9, 9, 9|4, 4, 4, 4|9, 9, 9, 9|4, 4, 4, 4|9, 9, 9, 9|2, 2, 2, 2|8, 8, 8, 8|6, 6, 6, 6|7, 7, 7, 7|2, 2, 2, 2|] ;
capacities = [10, 10, 10, 10] ;
